\ This file has been generated by DOcplex
\ ENCODING=ISO-8859-1
\Problem name: manne

Minimize
 obj: cmax
Subject To
 c1: x_1_0 - x_0_0 >= 1
 c2: x_2_0 - x_1_0 >= 3
 c3: x_0_1 - x_1_1 >= 8
 c4: x_2_1 - x_0_1 >= 5
 c5: x_2_2 - x_0_2 >= 5
 c6: x_1_2 - x_2_2 >= 4
 c7: x_0_3 - x_2_3 >= 4
 c8: x_1_3 - x_0_3 >= 10
 c9: x_2_4 - x_1_4 >= 8
 c10: x_0_4 - x_2_4 >= 3
 c11: x_0_0 - x_0_1 + 84 z_0_0_1 >= 5
 c12: x_0_1 - x_0_0 - 84 z_0_0_1 >= -83
 c13: x_0_0 - x_0_2 + 84 z_0_0_2 >= 5
 c14: x_0_2 - x_0_0 - 84 z_0_0_2 >= -83
 c15: x_0_0 - x_0_3 + 84 z_0_0_3 >= 10
 c16: x_0_3 - x_0_0 - 84 z_0_0_3 >= -83
 c17: x_0_0 - x_0_4 + 84 z_0_0_4 >= 7
 c18: x_0_4 - x_0_0 - 84 z_0_0_4 >= -83
 c19: x_0_1 - x_0_2 + 84 z_0_1_2 >= 5
 c20: x_0_2 - x_0_1 - 84 z_0_1_2 >= -79
 c21: x_0_1 - x_0_3 + 84 z_0_1_3 >= 10
 c22: x_0_3 - x_0_1 - 84 z_0_1_3 >= -79
 c23: x_0_1 - x_0_4 + 84 z_0_1_4 >= 7
 c24: x_0_4 - x_0_1 - 84 z_0_1_4 >= -79
 c25: x_0_2 - x_0_3 + 84 z_0_2_3 >= 10
 c26: x_0_3 - x_0_2 - 84 z_0_2_3 >= -79
 c27: x_0_2 - x_0_4 + 84 z_0_2_4 >= 7
 c28: x_0_4 - x_0_2 - 84 z_0_2_4 >= -79
 c29: x_0_3 - x_0_4 + 84 z_0_3_4 >= 7
 c30: x_0_4 - x_0_3 - 84 z_0_3_4 >= -74
 c31: x_1_0 - x_1_1 + 84 z_1_0_1 >= 8
 c32: x_1_1 - x_1_0 - 84 z_1_0_1 >= -81
 c33: x_1_0 - x_1_2 + 84 z_1_0_2 >= 8
 c34: x_1_2 - x_1_0 - 84 z_1_0_2 >= -81
 c35: x_1_0 - x_1_3 + 84 z_1_0_3 >= 6
 c36: x_1_3 - x_1_0 - 84 z_1_0_3 >= -81
 c37: x_1_0 - x_1_4 + 84 z_1_0_4 >= 8
 c38: x_1_4 - x_1_0 - 84 z_1_0_4 >= -81
 c39: x_1_1 - x_1_2 + 84 z_1_1_2 >= 8
 c40: x_1_2 - x_1_1 - 84 z_1_1_2 >= -76
 c41: x_1_1 - x_1_3 + 84 z_1_1_3 >= 6
 c42: x_1_3 - x_1_1 - 84 z_1_1_3 >= -76
 c43: x_1_1 - x_1_4 + 84 z_1_1_4 >= 8
 c44: x_1_4 - x_1_1 - 84 z_1_1_4 >= -76
 c45: x_1_2 - x_1_3 + 84 z_1_2_3 >= 6
 c46: x_1_3 - x_1_2 - 84 z_1_2_3 >= -76
 c47: x_1_2 - x_1_4 + 84 z_1_2_4 >= 8
 c48: x_1_4 - x_1_2 - 84 z_1_2_4 >= -76
 c49: x_1_3 - x_1_4 + 84 z_1_3_4 >= 8
 c50: x_1_4 - x_1_3 - 84 z_1_3_4 >= -78
 c51: x_2_0 - x_2_1 + 84 z_2_0_1 >= 10
 c52: x_2_1 - x_2_0 - 84 z_2_0_1 >= -82
 c53: x_2_0 - x_2_2 + 84 z_2_0_2 >= 4
 c54: x_2_2 - x_2_0 - 84 z_2_0_2 >= -82
 c55: x_2_0 - x_2_3 + 84 z_2_0_3 >= 4
 c56: x_2_3 - x_2_0 - 84 z_2_0_3 >= -82
 c57: x_2_0 - x_2_4 + 84 z_2_0_4 >= 3
 c58: x_2_4 - x_2_0 - 84 z_2_0_4 >= -82
 c59: x_2_1 - x_2_2 + 84 z_2_1_2 >= 4
 c60: x_2_2 - x_2_1 - 84 z_2_1_2 >= -74
 c61: x_2_1 - x_2_3 + 84 z_2_1_3 >= 4
 c62: x_2_3 - x_2_1 - 84 z_2_1_3 >= -74
 c63: x_2_1 - x_2_4 + 84 z_2_1_4 >= 3
 c64: x_2_4 - x_2_1 - 84 z_2_1_4 >= -74
 c65: x_2_2 - x_2_3 + 84 z_2_2_3 >= 4
 c66: x_2_3 - x_2_2 - 84 z_2_2_3 >= -80
 c67: x_2_2 - x_2_4 + 84 z_2_2_4 >= 3
 c68: x_2_4 - x_2_2 - 84 z_2_2_4 >= -80
 c69: x_2_3 - x_2_4 + 84 z_2_3_4 >= 3
 c70: x_2_4 - x_2_3 - 84 z_2_3_4 >= -80
 c71: cmax - x_2_0 >= 2
 c72: cmax - x_2_1 >= 10
 c73: cmax - x_1_2 >= 8
 c74: cmax - x_1_3 >= 6
 c75: cmax - x_0_4 >= 7

Bounds
       z_0_0_1 <= 1
       z_0_0_2 <= 1
       z_0_0_3 <= 1
       z_0_0_4 <= 1
       z_0_1_2 <= 1
       z_0_1_3 <= 1
       z_0_1_4 <= 1
       z_0_2_3 <= 1
       z_0_2_4 <= 1
       z_0_3_4 <= 1
       z_1_0_1 <= 1
       z_1_0_2 <= 1
       z_1_0_3 <= 1
       z_1_0_4 <= 1
       z_1_1_2 <= 1
       z_1_1_3 <= 1
       z_1_1_4 <= 1
       z_1_2_3 <= 1
       z_1_2_4 <= 1
       z_1_3_4 <= 1
       z_2_0_1 <= 1
       z_2_0_2 <= 1
       z_2_0_3 <= 1
       z_2_0_4 <= 1
       z_2_1_2 <= 1
       z_2_1_3 <= 1
       z_2_1_4 <= 1
       z_2_2_3 <= 1
       z_2_2_4 <= 1
       z_2_3_4 <= 1
 23 <= cmax
End
